decision_x1=[0,2];
decision_x2=[0,2];
decision_x3=[0,2];
decision_x4=[0,2];
decision_x5=[0,2];
decision_x6=[0,2];
decision_x7=[0,2];
decision_x8=[0,2];
decision_x9=[0,2];
decision_x10=[0,2];
random_y1=[0,2];
random_y2=[0,2];
random_y3=[0,2];
random_y4=[0,2];
random_y5=[0,2];
constraint_x2_x1=[
0,0,1.7|
0,1,7.4|
0,2,5|
1,0,2|
1,1,7.3|
1,2,2.1|
2,0,7.1|
2,1,0.78|
2,2,4.2|
];
constraint_x3_x2=[
0,0,4.5|
0,1,2.6|
0,2,9.9|
1,0,5|
1,1,5.3|
1,2,5.2|
2,0,0.00047|
2,1,1|
2,2,4.8|
];
constraint_x4_x1=[
0,0,5.3|
0,1,0.4|
0,2,7.3|
1,0,8.3|
1,1,8|
1,2,9.2|
2,0,1.4|
2,1,5.1|
2,2,3.1|
];
constraint_x4_x3=[
0,0,9.8|
0,1,8.6|
0,2,3.9|
1,0,1.4|
1,1,8.8|
1,2,9.8|
2,0,4.6|
2,1,5.1|
2,2,1.6|
];
constraint_x5_x1=[
0,0,5.7|
0,1,1.2|
0,2,0.082|
1,0,8.3|
1,1,7.7|
1,2,0.11|
2,0,4.6|
2,1,6.4|
2,2,5.6|
];
constraint_x5_x2=[
0,0,2.9|
0,1,1.2|
0,2,9.9|
1,0,9.2|
1,1,0.92|
1,2,0.98|
2,0,2.2|
2,1,9.8|
2,2,4.3|
];
constraint_x5_x3=[
0,0,7.7|
0,1,3.3|
0,2,1.1|
1,0,7.2|
1,1,8.1|
1,2,1.9|
2,0,3.7|
2,1,5.7|
2,2,0.49|
];
constraint_x6_x2=[
0,0,6.9|
0,1,5.3|
0,2,3|
1,0,1.6|
1,1,8.3|
1,2,0.41|
2,0,7.4|
2,1,4.4|
2,2,2.2|
];
constraint_x6_x3=[
0,0,5.5|
0,1,6.7|
0,2,9.1|
1,0,4.4|
1,1,7.2|
1,2,3|
2,0,6.2|
2,1,6.6|
2,2,2.4|
];
constraint_x6_x4=[
0,0,1|
0,1,1.2|
0,2,5.3|
1,0,1.6|
1,1,8|
1,2,7.8|
2,0,5.9|
2,1,8|
2,2,1.9|
];
constraint_x7_x2=[
0,0,6.9|
0,1,2.7|
0,2,0.31|
1,0,0.89|
1,1,0.13|
1,2,1.9|
2,0,8.7|
2,1,9.8|
2,2,0.037|
];
constraint_x7_x3=[
0,0,3.9|
0,1,2.6|
0,2,2.9|
1,0,6.1|
1,1,2.1|
1,2,7.6|
2,0,4.3|
2,1,0.86|
2,2,7.7|
];
constraint_x7_x6=[
0,0,0.042|
0,1,2.1|
0,2,7.3|
1,0,0.82|
1,1,4|
1,2,1.8|
2,0,5.7|
2,1,0.11|
2,2,9|
];
constraint_x8_x1=[
0,0,9.4|
0,1,0.5|
0,2,5.5|
1,0,9.9|
1,1,9.7|
1,2,8.4|
2,0,8.1|
2,1,2.2|
2,2,5.8|
];
constraint_x8_x4=[
0,0,3.3|
0,1,0.88|
0,2,6.8|
1,0,6.7|
1,1,4.4|
1,2,9.9|
2,0,0.73|
2,1,4.9|
2,2,8.7|
];
constraint_x9_x4=[
0,0,5.2|
0,1,7.2|
0,2,7.3|
1,0,7.1|
1,1,4.5|
1,2,8.9|
2,0,5|
2,1,6.1|
2,2,8.6|
];
constraint_x9_x6=[
0,0,4.1|
0,1,6|
0,2,9.5|
1,0,6.6|
1,1,1.1|
1,2,8.7|
2,0,0.68|
2,1,1|
2,2,3.8|
];
constraint_x9_x7=[
0,0,6.5|
0,1,2.2|
0,2,0.35|
1,0,1.1|
1,1,5.5|
1,2,0.38|
2,0,9.9|
2,1,1.7|
2,2,6.6|
];
constraint_x9_x8=[
0,0,2.4|
0,1,3.5|
0,2,0.78|
1,0,7.4|
1,1,4.9|
1,2,9.1|
2,0,4.7|
2,1,0.48|
2,2,7.7|
];
constraint_x10_x2=[
0,0,6.8|
0,1,9.5|
0,2,3.9|
1,0,7.8|
1,1,1.4|
1,2,1.1|
2,0,3.9|
2,1,9.2|
2,2,2.2|
];
constraint_x10_x3=[
0,0,0.14|
0,1,1.3|
0,2,1.8|
1,0,8.1|
1,1,3|
1,2,2.3|
2,0,0.21|
2,1,9.9|
2,2,8.3|
];
constraint_x10_x4=[
0,0,7.6|
0,1,6.4|
0,2,2.4|
1,0,7.5|
1,1,5.9|
1,2,5.7|
2,0,4|
2,1,5|
2,2,8.2|
];
constraint_x10_x5=[
0,0,0.11|
0,1,2.5|
0,2,9.6|
1,0,1.3|
1,1,6.1|
1,2,4.9|
2,0,6.1|
2,1,2.5|
2,2,0.19|
];
constraint_x1_y1=[
0,0,9.3|
0,1,5.7|
0,2,0.56|
1,0,2.7|
1,1,4.7|
1,2,2.9|
2,0,7.3|
2,1,1.7|
2,2,5.3|
];
constraint_x2_y2=[
0,0,3.7|
0,1,3.5|
0,2,1.5|
1,0,5.8|
1,1,4|
1,2,9.8|
2,0,3.7|
2,1,7.5|
2,2,1|
];
constraint_x3_y3=[
0,0,6|
0,1,8|
0,2,4.7|
1,0,2.2|
1,1,10|
1,2,9.2|
2,0,1.9|
2,1,5.4|
2,2,0.016|
];
constraint_x4_y4=[
0,0,1.1|
0,1,3.4|
0,2,0.8|
1,0,10|
1,1,0.38|
1,2,6.9|
2,0,4.4|
2,1,6.8|
2,2,4.1|
];
constraint_x5_y5=[
0,0,7.7|
0,1,8.5|
0,2,3.8|
1,0,4|
1,1,1|
1,2,8.5|
2,0,2.7|
2,1,7.7|
2,2,8|
];
initial_distribution_y1=[0.53,0.12,0.35];
initial_distribution_y2=[0.35,0.13,0.52];
initial_distribution_y3=[0.42,0.51,0.07];
initial_distribution_y4=[0.34,0.33,0.33];
initial_distribution_y5=[0.094,0.47,0.43];
transition_y1=[
0.51,0.17,0.32|
0.54,0.078,0.39|
0.5,0.09,0.41|
];
transition_y2=[
0.32,0.021,0.66|
0.58,0.16,0.26|
0.41,0.19,0.4|
];
transition_y3=[
0.57,0.3,0.13|
0.12,0.38,0.51|
0.047,0.72,0.24|
];
transition_y4=[
0.23,0.43,0.33|
0.53,0.21,0.25|
0.033,0.26,0.7|
];
transition_y5=[
0.075,0.84,0.083|
0.28,0.1,0.62|
0.22,0.76,0.025|
];
